Bruniera/ragionamento automatico/progetto/benchmark/asp/mid19.lp
start(0).
limit(6).
n(14).
strada(0,5,15).
strada(0,7,20).
strada(0,8,8).
strada(0,13,6).
strada(1,3,1).
strada(1,7,2).
strada(1,9,11).
strada(2,3,17).
strada(2,5,15).
strada(2,6,10).
strada(2,7,15).
strada(2,9,14).
strada(2,11,13).
strada(3,0,17).
strada(3,1,2).
strada(3,2,17).
strada(3,4,6).
strada(3,7,15).
strada(3,13,3).
strada(4,0,16).
strada(4,3,3).
strada(4,6,16).
strada(4,7,0).
strada(4,8,5).
strada(4,10,5).
strada(4,11,14).
strada(5,0,11).
strada(5,1,13).
strada(5,2,17).
strada(5,4,16).
strada(5,6,1).
strada(5,7,19).
strada(5,11,14).
strada(5,12,16).
strada(5,13,7).
strada(6,0,14).
strada(6,3,6).
strada(6,4,20).
strada(6,11,19).
strada(7,4,11).
strada(7,5,6).
strada(7,6,20).
strada(7,8,0).
strada(7,10,1).
strada(7,13,6).
strada(8,1,3).
strada(8,3,3).
strada(8,10,5).
strada(8,12,4).
strada(8,13,19).
strada(9,0,14).
strada(9,4,4).
strada(9,7,17).
strada(9,10,3).
strada(9,11,11).
strada(9,13,11).
strada(10,0,17).
strada(10,2,5).
strada(10,6,7).
strada(10,9,12).
strada(10,11,18).
strada(10,12,7).
strada(11,1,14).
strada(11,4,16).
strada(11,6,14).
strada(11,9,8).
strada(11,10,3).
strada(11,13,13).
strada(12,1,1).
strada(12,3,14).
strada(12,5,5).
strada(12,9,11).
strada(12,10,3).
strada(12,11,18).
strada(13,2,20).
strada(13,4,2).
strada(13,8,10).
strada(13,9,4).
strada(13,10,18).
strada(13,11,18).
