Bruniera/ragionamento automatico/progetto/benchmark/minizinc/mid19.dzn
start = 1;
limit = 6;
n = 14;
m=[|-1,-1,-1,-1,-1,15,-1,20,8,-1,-1,-1,-1,6,
|-1,-1,-1,1,-1,-1,-1,2,-1,11,-1,-1,-1,-1,
|-1,-1,-1,17,-1,15,10,15,-1,14,-1,13,-1,-1,
|17,2,17,-1,6,-1,-1,15,-1,-1,-1,-1,-1,3,
|16,-1,-1,3,-1,-1,16,0,5,-1,5,14,-1,-1,
|11,13,17,-1,16,-1,1,19,-1,-1,-1,14,16,7,
|14,-1,-1,6,20,-1,-1,-1,-1,-1,-1,19,-1,-1,
|-1,-1,-1,-1,11,6,20,-1,0,-1,1,-1,-1,6,
|-1,3,-1,3,-1,-1,-1,-1,-1,-1,5,-1,4,19,
|14,-1,-1,-1,4,-1,-1,17,-1,-1,3,11,-1,11,
|17,-1,5,-1,-1,-1,7,-1,-1,12,-1,18,7,-1,
|-1,14,-1,-1,16,-1,14,-1,-1,8,3,-1,-1,13,
|-1,1,-1,14,-1,5,-1,-1,-1,11,3,18,-1,-1,
|-1,-1,20,-1,2,-1,-1,-1,10,4,18,18,-1,-1,
|]
;